50	100	100	100
20	26	16
1	18	28
28	1	22
33	27	16
21	10	24
3	30	19
9	33	27
9	6	33
32	32	27
4	33	21
14	3	8
4	29	34
3	11	34
18	33	27
28	17	33
1	5	25
3	32	4
27	22	30
12	17	17
26	27	12
5	13	6
31	20	14
2	24	12
13	31	31
9	15	33
18	8	26
3	30	19
10	2	17
30	22	10
24	16	9
22	7	10
31	33	10
27	14	12
4	32	2
2	24	9
14	20	15
1	25	18
5	23	13
5	18	26
7	17	2
30	16	15
17	20	19
34	28	26
32	3	5
7	7	28
17	12	28
29	34	30
13	12	25
6	14	23
29	11	32
